pair_coeff    1    1      0.170000     3.250000  # NA NA
pair_coeff    1    2      0.109087     3.396690  # NA CR
pair_coeff    1    3      0.109087     3.396690  # NA CW
pair_coeff    1    4      0.105924     3.372684  # NA C1
pair_coeff    1    5      0.071414     2.804461  # NA HCR
pair_coeff    1    6      0.071414     2.804461  # NA HCW
pair_coeff    1    7      0.071414     2.850439  # NA H1
pair_coeff    1    8      0.105924     3.372684  # NA CE
pair_coeff    1    9      0.071414     2.850439  # NA HC
pair_coeff    1   10      0.105924     3.372684  # NA CBT
pair_coeff    1   11      0.101868     3.183316  # NA F1
pair_coeff    1   12      0.206155     3.396690  # NA SBT
pair_coeff    1   13      0.170000     3.250000  # NA NBT
pair_coeff    1   14      0.184453     3.199609  # NA OBT
pair_coeff    2    2      0.070000     3.550000  # CR CR
pair_coeff    2    3      0.070000     3.550000  # CR CW
pair_coeff    2    4      0.067970     3.524911  # CR C1
pair_coeff    2    5      0.045826     2.931041  # CR HCR
pair_coeff    2    6      0.045826     2.931041  # CR HCW
pair_coeff    2    7      0.045826     2.979094  # CR H1
pair_coeff    2    8      0.067970     3.524911  # CR CE
pair_coeff    2    9      0.045826     2.979094  # CR HC
pair_coeff    2   10      0.067970     3.524911  # CR CBT
pair_coeff    2   11      0.065368     3.326996  # CR F1
pair_coeff    2   12      0.132288     3.550000  # CR SBT
pair_coeff    2   13      0.109087     3.396690  # CR NBT
pair_coeff    2   14      0.118361     3.344025  # CR OBT
pair_coeff    3    3      0.070000     3.550000  # CW CW
pair_coeff    3    4      0.067970     3.524911  # CW C1
pair_coeff    3    5      0.045826     2.931041  # CW HCR
pair_coeff    3    6      0.045826     2.931041  # CW HCW
pair_coeff    3    7      0.045826     2.979094  # CW H1
pair_coeff    3    8      0.067970     3.524911  # CW CE
pair_coeff    3    9      0.045826     2.979094  # CW HC
pair_coeff    3   10      0.067970     3.524911  # CW CBT
pair_coeff    3   11      0.065368     3.326996  # CW F1
pair_coeff    3   12      0.132288     3.550000  # CW SBT
pair_coeff    3   13      0.109087     3.396690  # CW NBT
pair_coeff    3   14      0.118361     3.344025  # CW OBT
pair_coeff    4    4      0.065999     3.500000  # C1 C1
pair_coeff    4    5      0.044497     2.910326  # C1 HCR
pair_coeff    4    6      0.044497     2.910326  # C1 HCW
pair_coeff    4    7      0.044497     2.958040  # C1 H1
pair_coeff    4    8      0.065999     3.500000  # C1 CE
pair_coeff    4    9      0.044497     2.958040  # C1 HC
pair_coeff    4   10      0.065999     3.500000  # C1 CBT
pair_coeff    4   11      0.063472     3.303483  # C1 F1
pair_coeff    4   12      0.128451     3.524911  # C1 SBT
pair_coeff    4   13      0.105924     3.372684  # C1 NBT
pair_coeff    4   14      0.114929     3.320392  # C1 OBT
pair_coeff    5    5      0.030000     2.420000  # HCR HCR
pair_coeff    5    6      0.030000     2.420000  # HCR HCW
pair_coeff    5    7      0.030000     2.459675  # HCR H1
pair_coeff    5    8      0.044497     2.910326  # HCR CE
pair_coeff    5    9      0.030000     2.459675  # HCR HC
pair_coeff    5   10      0.044497     2.910326  # HCR CBT
pair_coeff    5   11      0.042793     2.746918  # HCR F1
pair_coeff    5   12      0.086603     2.931041  # HCR SBT
pair_coeff    5   13      0.071414     2.804461  # HCR NBT
pair_coeff    5   14      0.077486     2.760978  # HCR OBT
pair_coeff    6    6      0.030000     2.420000  # HCW HCW
pair_coeff    6    7      0.030000     2.459675  # HCW H1
pair_coeff    6    8      0.044497     2.910326  # HCW CE
pair_coeff    6    9      0.030000     2.459675  # HCW HC
pair_coeff    6   10      0.044497     2.910326  # HCW CBT
pair_coeff    6   11      0.042793     2.746918  # HCW F1
pair_coeff    6   12      0.086603     2.931041  # HCW SBT
pair_coeff    6   13      0.071414     2.804461  # HCW NBT
pair_coeff    6   14      0.077486     2.760978  # HCW OBT
pair_coeff    7    7      0.030000     2.500000  # H1 H1
pair_coeff    7    8      0.044497     2.958040  # H1 CE
pair_coeff    7    9      0.030000     2.500000  # H1 HC
pair_coeff    7   10      0.044497     2.958040  # H1 CBT
pair_coeff    7   11      0.042793     2.791953  # H1 F1
pair_coeff    7   12      0.086603     2.979094  # H1 SBT
pair_coeff    7   13      0.071414     2.850439  # H1 NBT
pair_coeff    7   14      0.077486     2.806243  # H1 OBT
pair_coeff    8    8      0.065999     3.500000  # CE CE
pair_coeff    8    9      0.044497     2.958040  # CE HC
pair_coeff    8   10      0.065999     3.500000  # CE CBT
pair_coeff    8   11      0.063472     3.303483  # CE F1
pair_coeff    8   12      0.128451     3.524911  # CE SBT
pair_coeff    8   13      0.105924     3.372684  # CE NBT
pair_coeff    8   14      0.114929     3.320392  # CE OBT
pair_coeff    9    9      0.030000     2.500000  # HC HC
pair_coeff    9   10      0.044497     2.958040  # HC CBT
pair_coeff    9   11      0.042793     2.791953  # HC F1
pair_coeff    9   12      0.086603     2.979094  # HC SBT
pair_coeff    9   13      0.071414     2.850439  # HC NBT
pair_coeff    9   14      0.077486     2.806243  # HC OBT
pair_coeff   10   10      0.065999     3.500000  # CBT CBT
pair_coeff   10   11      0.063472     3.303483  # CBT F1
pair_coeff   10   12      0.128451     3.524911  # CBT SBT
pair_coeff   10   13      0.105924     3.372684  # CBT NBT
pair_coeff   10   14      0.114929     3.320392  # CBT OBT
pair_coeff   11   11      0.061042     3.118000  # F1 F1
pair_coeff   11   12      0.123533     3.326996  # F1 SBT
pair_coeff   11   13      0.101868     3.183316  # F1 NBT
pair_coeff   11   14      0.110529     3.133959  # F1 OBT
pair_coeff   12   12      0.250000     3.550000  # SBT SBT
pair_coeff   12   13      0.206155     3.396690  # SBT NBT
pair_coeff   12   14      0.223682     3.344025  # SBT OBT
pair_coeff   13   13      0.170000     3.250000  # NBT NBT
pair_coeff   13   14      0.184453     3.199609  # NBT OBT
pair_coeff   14   14      0.200134     3.150000  # OBT OBT
pair_coeff    17    17      0.170000     3.250000
pair_coeff    18    18      0.030000     2.420000
pair_coeff    15    15      0.086000     3.400000  # CW CW
pair_coeff   16   16      0.200134     3.150000