pair_coeff    1    1      0.170000     3.250000  # NA NA
pair_coeff    1    2      0.109087     3.396690  # NA CR
pair_coeff    1    3      0.109087     3.396690  # NA CW
pair_coeff    1    4      0.105924     3.372684  # NA C1
pair_coeff    1    5      0.071414     2.804461  # NA HCR
pair_coeff    1    6      0.071414     2.804461  # NA HCW
pair_coeff    1    7      0.071414     2.850439  # NA H1
pair_coeff    1    8      0.105924     3.372684  # NA C2
pair_coeff    1    9      0.105924     3.372684  # NA CS
pair_coeff    1   10      0.071414     2.850439  # NA HC
pair_coeff    1   11      0.105924     3.372684  # NA CT
pair_coeff    1   12      0.206155     3.396690  # NA SK
pair_coeff    1   13      0.120909     3.324154  # NA CK
pair_coeff    1   14      0.170000     3.250000  # NA NK
pair_coeff    2    2      0.070000     3.550000  # CR CR
pair_coeff    2    3      0.070000     3.550000  # CR CW
pair_coeff    2    4      0.067970     3.524911  # CR C1
pair_coeff    2    5      0.045826     2.931041  # CR HCR
pair_coeff    2    6      0.045826     2.931041  # CR HCW
pair_coeff    2    7      0.045826     2.979094  # CR H1
pair_coeff    2    8      0.067970     3.524911  # CR C2
pair_coeff    2    9      0.067970     3.524911  # CR CS
pair_coeff    2   10      0.045826     2.979094  # CR HC
pair_coeff    2   11      0.067970     3.524911  # CR CT
pair_coeff    2   12      0.132288     3.550000  # CR SK
pair_coeff    2   13      0.077586     3.474191  # CR CK
pair_coeff    2   14      0.109087     3.396690  # CR NK
pair_coeff    3    3      0.070000     3.550000  # CW CW
pair_coeff    3    4      0.067970     3.524911  # CW C1
pair_coeff    3    5      0.045826     2.931041  # CW HCR
pair_coeff    3    6      0.045826     2.931041  # CW HCW
pair_coeff    3    7      0.045826     2.979094  # CW H1
pair_coeff    3    8      0.067970     3.524911  # CW C2
pair_coeff    3    9      0.067970     3.524911  # CW CS
pair_coeff    3   10      0.045826     2.979094  # CW HC
pair_coeff    3   11      0.067970     3.524911  # CW CT
pair_coeff    3   12      0.132288     3.550000  # CW SK
pair_coeff    3   13      0.077586     3.474191  # CW CK
pair_coeff    3   14      0.109087     3.396690  # CW NK
pair_coeff    4    4      0.065999     3.500000  # C1 C1
pair_coeff    4    5      0.044497     2.910326  # C1 HCR
pair_coeff    4    6      0.044497     2.910326  # C1 HCW
pair_coeff    4    7      0.044497     2.958040  # C1 H1
pair_coeff    4    8      0.065999     3.500000  # C1 C2
pair_coeff    4    9      0.065999     3.500000  # C1 CS
pair_coeff    4   10      0.044497     2.958040  # C1 HC
pair_coeff    4   11      0.065999     3.500000  # C1 CT
pair_coeff    4   12      0.128451     3.524911  # C1 SK
pair_coeff    4   13      0.075336     3.449638  # C1 CK
pair_coeff    4   14      0.105924     3.372684  # C1 NK
pair_coeff    5    5      0.030000     2.420000  # HCR HCR
pair_coeff    5    6      0.030000     2.420000  # HCR HCW
pair_coeff    5    7      0.030000     2.459675  # HCR H1
pair_coeff    5    8      0.044497     2.910326  # HCR C2
pair_coeff    5    9      0.044497     2.910326  # HCR CS
pair_coeff    5   10      0.030000     2.459675  # HCR HC
pair_coeff    5   11      0.044497     2.910326  # HCR CT
pair_coeff    5   12      0.086603     2.931041  # HCR SK
pair_coeff    5   13      0.050792     2.868449  # HCR CK
pair_coeff    5   14      0.071414     2.804461  # HCR NK
pair_coeff    6    6      0.030000     2.420000  # HCW HCW
pair_coeff    6    7      0.030000     2.459675  # HCW H1
pair_coeff    6    8      0.044497     2.910326  # HCW C2
pair_coeff    6    9      0.044497     2.910326  # HCW CS
pair_coeff    6   10      0.030000     2.459675  # HCW HC
pair_coeff    6   11      0.044497     2.910326  # HCW CT
pair_coeff    6   12      0.086603     2.931041  # HCW SK
pair_coeff    6   13      0.050792     2.868449  # HCW CK
pair_coeff    6   14      0.071414     2.804461  # HCW NK
pair_coeff    7    7      0.030000     2.500000  # H1 H1
pair_coeff    7    8      0.044497     2.958040  # H1 C2
pair_coeff    7    9      0.044497     2.958040  # H1 CS
pair_coeff    7   10      0.030000     2.500000  # H1 HC
pair_coeff    7   11      0.044497     2.958040  # H1 CT
pair_coeff    7   12      0.086603     2.979094  # H1 SK
pair_coeff    7   13      0.050792     2.915476  # H1 CK
pair_coeff    7   14      0.071414     2.850439  # H1 NK
pair_coeff    8    8      0.065999     3.500000  # C2 C2
pair_coeff    8    9      0.065999     3.500000  # C2 CS
pair_coeff    8   10      0.044497     2.958040  # C2 HC
pair_coeff    8   11      0.065999     3.500000  # C2 CT
pair_coeff    8   12      0.128451     3.524911  # C2 SK
pair_coeff    8   13      0.075336     3.449638  # C2 CK
pair_coeff    8   14      0.105924     3.372684  # C2 NK
pair_coeff    9    9      0.065999     3.500000  # CS CS
pair_coeff    9   10      0.044497     2.958040  # CS HC
pair_coeff    9   11      0.065999     3.500000  # CS CT
pair_coeff    9   12      0.128451     3.524911  # CS SK
pair_coeff    9   13      0.075336     3.449638  # CS CK
pair_coeff    9   14      0.105924     3.372684  # CS NK
pair_coeff   10   10      0.030000     2.500000  # HC HC
pair_coeff   10   11      0.044497     2.958040  # HC CT
pair_coeff   10   12      0.086603     2.979094  # HC SK
pair_coeff   10   13      0.050792     2.915476  # HC CK
pair_coeff   10   14      0.071414     2.850439  # HC NK
pair_coeff   11   11      0.065999     3.500000  # CT CT
pair_coeff   11   12      0.128451     3.524911  # CT SK
pair_coeff   11   13      0.075336     3.449638  # CT CK
pair_coeff   11   14      0.105924     3.372684  # CT NK
pair_coeff   12   12      0.250000     3.550000  # SK SK
pair_coeff   12   13      0.146624     3.474191  # SK CK
pair_coeff   12   14      0.206155     3.396690  # SK NK
pair_coeff   13   13      0.085994     3.400000  # CK CK
pair_coeff   13   14      0.120909     3.324154  # CK NK
pair_coeff   14   14      0.170000     3.250000  # NK NK
pair_coeff   15   15      0.086000     3.400000